AtomicCoordinatesFormat  Ang
LatticeConstant  1.0  Ang

NumberOfAtoms    12
NumberOfSpecies  2

%block LatticeVectors
    20.6499999999999986    0.0000000000000000    0.0000000000000000
     0.0000000000000000   10.0000000000000000    0.0000000000000000
     0.0000000000000000    0.0000000000000000    2.4595121467478056
%endblock LatticeVectors

%block ChemicalSpeciesLabel
   1     6     C
   2     1     H
%endblock ChemicalSpeciesLabel

%block AtomicCoordinatesAndAtomicSpecies
   14.2300000000000004    5.0000000000000000    0.6148780366869514  1
   14.9400000000000013    5.0000000000000000    1.8446341100608543  1
   12.1000000000000014    5.0000000000000000    1.8446341100608543  1
   12.8100000000000005    5.0000000000000000    0.6148780366869514  1
    9.9700000000000006    5.0000000000000000    0.6148780366869514  1
   10.6799999999999997    5.0000000000000000    1.8446341100608543  1
    7.8400000000000007    5.0000000000000000    1.8446341100608543  1
    8.5500000000000007    5.0000000000000000    0.6148780366869514  1
    5.7100000000000009    5.0000000000000000    0.6148780366869514  1
    6.4200000000000008    5.0000000000000000    1.8446341100608543  1
   16.0300000000000011    5.0000000000000000    1.8446341100608543  2
    4.6200000000000010    5.0000000000000000    0.6148780366869514  2
%endblock AtomicCoordinatesAndAtomicSpecies

